c File: instances/30_0.35_3.col
c
c Description: Random graph of size 30 vertices and P(0.35) of edges between any two vertices.
p col 30 435
e 1 3
e 1 17
e 1 22
e 1 29
e 2 3
e 2 6
e 2 7
e 2 9
e 2 10
e 2 12
e 2 14
e 2 18
e 2 25
e 2 27
e 3 8
e 3 14
e 3 15
e 3 21
e 3 25
e 3 27
e 4 5
e 4 7
e 4 8
e 4 11
e 4 12
e 4 20
e 4 21
e 4 22
e 4 23
e 4 25
e 4 26
e 4 27
e 5 8
e 5 10
e 5 11
e 5 12
e 5 13
e 5 14
e 5 17
e 5 28
e 6 10
e 6 14
e 6 15
e 6 19
e 6 24
e 6 25
e 6 29
e 6 30
e 7 11
e 7 13
e 7 18
e 7 22
e 7 23
e 7 28
e 7 29
e 8 10
e 8 12
e 8 13
e 8 21
e 8 23
e 8 30
e 9 14
e 9 15
e 9 16
e 9 17
e 9 20
e 9 24
e 9 26
e 9 27
e 10 11
e 10 12
e 10 13
e 10 16
e 10 17
e 10 20
e 10 22
e 10 26
e 10 27
e 11 13
e 11 14
e 11 15
e 11 16
e 11 18
e 11 20
e 11 21
e 11 24
e 11 25
e 11 26
e 11 28
e 12 14
e 12 16
e 12 19
e 12 23
e 12 24
e 12 29
e 13 14
e 13 16
e 13 19
e 13 20
e 13 26
e 13 27
e 14 17
e 14 18
e 14 20
e 14 23
e 15 18
e 15 24
e 15 29
e 15 30
e 16 17
e 16 23
e 16 24
e 17 18
e 17 20
e 17 25
e 17 29
e 18 21
e 18 26
e 19 20
e 20 25
e 20 29
e 20 30
e 21 24
e 21 26
e 21 29
e 22 24
e 22 29
e 22 30
e 23 24
e 23 25
e 23 27
e 23 28
e 24 25
e 24 26
e 25 27
e 25 28
e 25 30
e 26 27
e 26 28
e 26 30
e 27 28
e 29 30